Figure: large_5
File Number: 4
Nodes: 300
Edges: 22543
Max Generations: 1000
Population Size: 100
Mutation Rate: 0.01
Colors Used: 174
Runtime: 9.03

Generation,Average Fitness,Best Fitness
0,129.09,101
1,123.73,101
2,120.97,101
3,119.66,97
4,118.31,97
5,115.9,96
6,112.68,95
7,111.43,94
8,110.5,93
9,107.17,88
10,104.31,88
11,102.24,88
12,98.56,87
13,97.2,83
14,94.74,81
15,92.46,79
16,91.74,79
17,89.89,76
18,88.98,76
19,87.66,76
20,87.74,73
21,84.15,72
22,82.51,71
23,82.29,69
24,81.35,66
25,79.63,65
26,78.65,65
27,78.54,63
28,77.02,63
29,74.81,62
30,73.32,61
31,72.1,58
32,70.85,57
33,69.28,57
34,67.4,57
35,66.27,55
36,64.89,55
37,63.09,55
38,61.98,54
39,62.02,47
40,61.32,47
41,61.49,47
42,61.97,47
43,61.62,47
44,61.6,47
45,60.65,47
46,60.15,47
47,59.21,47
48,58.66,47
49,57.55,47
50,56.84,46
51,55.47,46
52,55.28,46
53,55.2,46
54,54.55,41
55,53.79,41
56,53.09,40
57,52.86,40
58,52.58,40
59,52.64,40
60,51.44,36
61,51.09,36
62,50.03,36
63,50.37,36
64,49.05,36
65,47.63,34
66,46.23,34
67,44.75,31
68,43.63,31
69,42.72,31
70,41.88,28
71,41.67,28
72,40.88,28
73,40.33,28
74,39.25,28
75,38.19,27
76,37.99,27
77,37.88,27
78,37.99,27
79,37.48,27
80,37.17,27
81,36.36,27
82,36.19,25
83,35.94,25
84,35.49,25
85,34.16,25
86,33.75,25
87,33.8,25
88,33.28,24
89,33.2,24
90,32.75,24
91,33.0,24
92,32.21,22
93,32.06,22
94,31.66,22
95,31.62,21
96,31.71,21
97,31.13,21
98,31.45,21
99,30.61,21
100,30.94,21
101,31.05,21
102,30.58,21
103,30.5,21
104,30.82,21
105,31.5,21
106,30.98,21
107,30.72,21
108,31.29,21
109,31.54,21
110,31.35,21
111,32.01,21
112,31.42,20
113,31.06,19
114,30.95,19
115,31.02,19
116,31.83,19
117,31.01,19
118,29.97,19
119,29.56,19
120,28.9,19
121,28.35,19
122,27.75,16
123,27.05,15
124,26.45,15
125,26.49,15
126,26.2,15
127,25.37,15
128,25.11,15
129,24.91,15
130,24.85,15
131,24.67,15
132,24.21,15
133,23.93,15
134,23.64,15
135,23.98,15
136,23.69,15
137,23.79,15
138,24.51,15
139,24.2,15
140,24.05,15
141,24.41,15
142,24.3,15
143,24.95,15
144,24.05,15
145,24.06,13
146,23.8,13
147,23.61,13
148,23.52,13
149,23.96,13
150,23.78,13
151,23.98,13
152,23.88,13
153,23.34,13
154,23.22,13
155,22.91,13
156,23.78,13
157,23.86,13
158,23.63,13
159,23.25,13
160,23.16,13
161,22.96,13
162,22.17,13
163,21.97,13
164,21.94,13
165,22.18,13
166,21.92,13
167,21.99,13
168,22.0,13
169,22.32,13
170,22.57,13
171,22.98,13
172,22.5,12
173,22.73,12
174,23.01,12
175,22.72,12
176,23.68,12
177,24.22,12
178,24.72,12
179,24.54,12
180,23.55,12
181,23.58,12
182,22.61,12
183,21.9,12
184,21.81,12
185,21.68,12
186,21.95,12
187,21.75,12
188,21.15,12
189,21.06,12
190,21.38,12
191,21.79,12
192,21.6,12
193,20.77,12
194,21.01,12
195,20.16,12
196,20.64,12
197,20.21,12
198,20.63,12
199,21.36,12
200,21.56,12
201,21.85,12
202,22.22,12
203,23.0,12
204,23.58,12
205,23.64,12
206,23.48,12
207,23.29,12
208,22.78,12
209,23.0,12
210,22.4,12
211,22.29,12
212,22.52,12
213,22.17,12
214,22.49,12
215,22.0,10
216,22.42,10
217,22.16,10
218,22.01,10
219,22.56,10
220,23.25,10
221,22.65,10
222,22.79,10
223,22.79,10
224,22.73,10
225,22.04,10
226,22.29,10
227,22.25,10
228,22.17,10
229,22.88,10
230,22.46,10
231,22.06,10
232,20.69,10
233,21.41,10
234,20.57,10
235,20.48,10
236,20.18,10
237,20.79,10
238,20.23,10
239,19.89,10
240,19.37,10
241,19.37,10
242,19.33,10
243,19.15,10
244,19.29,10
245,19.25,10
246,19.51,10
247,19.16,10
248,19.43,10
249,19.07,10
250,18.75,10
251,19.17,9
252,19.28,9
253,19.52,9
254,19.51,9
255,19.45,9
256,20.02,9
257,20.8,9
258,21.03,9
259,20.87,9
260,21.11,9
261,20.82,9
262,20.43,9
263,19.38,9
264,18.56,9
265,18.36,9
266,18.46,8
267,18.16,8
268,17.77,8
269,17.42,8
270,18.01,8
271,17.77,8
272,18.67,8
273,18.16,8
274,18.11,8
275,17.6,8
276,18.04,8
277,18.03,8
278,19.02,8
279,19.34,8
280,19.98,8
281,19.96,8
282,20.91,8
283,19.95,8
284,20.02,8
285,19.86,8
286,20.31,8
287,20.8,8
288,20.78,8
289,21.34,8
290,21.28,8
291,21.34,8
292,20.63,8
293,19.94,8
294,19.3,8
295,18.64,8
296,18.56,8
297,18.14,8
298,18.33,8
299,18.0,8
300,17.74,8
301,18.0,8
302,18.18,8
303,18.69,8
304,18.87,8
305,18.8,8
306,18.69,8
307,18.27,8
308,17.43,8
309,17.4,8
310,16.43,8
311,16.17,7
312,16.84,7
313,16.54,7
314,16.99,7
315,17.22,7
316,17.68,7
317,17.82,7
318,17.92,7
319,18.4,7
320,18.72,7
321,19.28,7
322,19.15,7
323,18.66,7
324,17.87,7
325,18.15,7
326,17.34,7
327,17.93,7
328,17.39,7
329,17.19,7
330,17.78,7
331,17.31,6
332,17.13,6
333,16.62,6
334,16.26,5
335,15.79,5
336,15.25,5
337,14.51,5
338,14.34,5
339,15.04,5
340,15.26,5
341,15.56,5
342,15.07,5
343,15.43,5
344,15.57,5
345,15.99,5
346,16.42,5
347,15.94,5
348,15.48,5
349,15.86,5
350,16.44,5
351,15.91,5
352,15.38,5
353,15.4,5
354,15.87,5
355,16.34,5
356,16.35,5
357,16.34,5
358,16.62,5
359,16.06,5
360,16.02,5
361,16.17,5
362,15.62,5
363,15.94,5
364,16.37,5
365,16.8,5
366,17.24,5
367,18.03,5
368,17.87,5
369,18.22,5
370,19.06,5
371,18.79,5
372,18.83,5
373,18.5,5
374,18.56,5
375,18.3,5
376,17.25,5
377,16.93,5
378,17.46,5
379,17.46,5
380,17.8,5
381,17.11,5
382,17.65,5
383,18.01,5
384,18.4,5
385,17.79,5
386,16.93,4
387,16.95,4
388,16.62,4
389,15.41,4
390,14.91,4
391,15.13,4
392,15.82,4
393,15.8,4
394,16.27,4
395,15.45,4
396,15.43,4
397,15.29,4
398,14.98,4
399,14.56,4
400,14.7,4
401,15.15,4
402,15.71,4
403,17.05,4
404,17.32,4
405,16.91,4
406,16.69,4
407,15.95,4
408,15.21,4
409,15.54,4
410,15.45,4
411,15.26,4
412,15.71,4
413,15.79,4
414,15.09,4
415,14.48,4
416,14.75,4
417,14.61,4
418,14.56,4
419,14.53,4
420,15.03,4
421,15.16,4
422,14.95,4
423,14.48,4
424,15.02,4
425,15.23,4
426,14.74,4
427,14.78,4
428,14.71,4
429,14.62,4
430,15.12,4
431,15.6,4
432,15.95,4
433,15.8,4
434,16.45,4
435,15.51,4
436,15.13,4
437,14.98,4
438,15.05,4
439,15.32,4
440,15.58,4
441,15.72,4
442,15.18,4
443,16.27,4
444,16.68,4
445,16.4,4
446,16.28,4
447,16.11,3
448,15.95,3
449,15.44,3
450,14.34,3
451,13.96,3
452,13.11,3
453,13.41,3
454,13.45,3
455,13.25,3
456,14.11,3
457,14.46,3
458,15.21,3
459,14.93,3
460,14.67,3
461,14.64,3
462,14.08,3
463,14.21,3
464,14.51,3
465,14.37,3
466,14.37,3
467,14.35,3
468,14.33,3
469,14.33,3
470,15.06,3
471,15.01,3
472,14.61,3
473,14.68,3
474,14.8,3
475,14.38,3
476,13.91,3
477,13.88,3
478,13.97,3
479,14.86,3
480,15.13,3
481,15.73,3
482,15.4,3
483,15.7,3
484,15.94,3
485,16.29,3
486,15.99,3
487,16.38,3
488,15.62,3
489,15.07,3
490,14.79,3
491,15.47,3
492,16.16,3
493,16.22,3
494,16.32,3
495,16.47,3
496,16.22,3
497,16.56,3
498,17.11,3
499,17.34,3
500,17.56,3
501,16.96,3
502,17.56,3
503,17.46,3
504,17.14,3
505,17.03,3
506,17.88,3
507,17.62,3
508,17.78,3
509,17.48,3
510,17.11,3
511,17.42,3
512,17.64,3
513,17.3,3
514,16.91,3
515,17.13,3
516,16.02,3
517,15.66,3
518,15.52,3
519,14.9,3
520,14.63,3
521,14.78,3
522,15.35,3
523,15.81,3
524,16.08,3
525,16.17,3
526,16.21,3
527,16.17,3
528,16.15,3
529,15.55,3
530,15.76,3
531,15.7,3
532,14.51,3
533,13.76,3
534,13.67,3
535,13.87,3
536,14.13,3
537,14.88,3
538,14.14,3
539,14.09,3
540,13.79,3
541,13.35,3
542,12.68,3
543,13.58,3
544,14.7,3
545,15.38,3
546,15.54,3
547,16.2,3
548,16.31,3
549,16.46,3
550,16.65,3
551,16.02,3
552,15.67,3
553,15.51,3
554,15.83,3
555,15.7,3
556,15.66,3
557,14.99,3
558,15.49,3
559,15.8,3
560,15.25,3
561,15.49,3
562,15.17,3
563,14.69,3
564,14.48,3
565,14.25,3
566,13.99,3
567,13.65,3
568,13.78,3
569,13.27,3
570,12.98,3
571,12.62,3
572,13.01,3
573,13.38,3
574,13.14,3
575,13.89,3
576,13.9,3
577,14.13,3
578,14.56,3
579,14.53,3
580,14.67,3
581,14.67,3
582,14.14,3
583,15.04,3
584,15.37,3
585,15.24,3
586,15.74,3
587,15.62,3
588,15.26,3
589,14.83,3
590,13.6,3
591,13.59,3
592,13.13,3
593,12.93,3
594,12.67,3
595,12.7,3
596,12.37,3
597,12.19,3
598,12.55,3
599,13.08,3
600,13.65,3
601,13.46,3
602,14.09,2
603,14.51,2
604,14.43,2
605,14.98,2
606,13.27,2
607,12.87,2
608,12.4,2
609,12.89,2
610,13.09,2
611,13.47,2
612,12.68,2
613,12.93,2
614,12.47,2
615,12.49,2
616,12.64,2
617,13.41,2
618,13.32,2
619,13.3,2
620,13.58,2
621,13.68,2
622,14.3,2
623,14.58,2
624,15.14,2
625,15.34,2
626,15.54,2
627,16.58,2
628,16.09,2
629,16.01,2
630,15.87,2
631,15.51,2
632,15.81,2
633,15.42,2
634,14.66,2
635,14.62,2
636,14.17,2
637,14.71,2
638,14.6,2
639,14.1,2
640,14.07,2
641,14.34,2
642,14.31,2
643,15.02,2
644,14.58,2
645,14.89,2
646,14.48,2
647,14.09,2
648,13.78,2
649,14.11,2
650,14.07,2
651,13.85,2
652,13.89,2
653,13.4,2
654,13.13,2
655,13.39,2
656,12.9,2
657,12.94,2
658,12.22,2
659,12.14,2
660,12.01,2
661,12.39,2
662,13.12,2
663,12.94,2
664,13.07,2
665,13.38,2
666,13.57,2
667,13.51,2
668,14.0,2
669,13.42,2
670,13.33,2
671,13.16,2
672,13.43,2
673,13.28,2
674,13.48,2
675,13.44,2
676,13.69,2
677,13.49,2
678,13.78,2
679,13.63,2
680,14.49,2
681,14.01,2
682,13.72,2
683,13.23,2
684,13.2,2
685,12.6,2
686,12.75,2
687,13.55,2
688,13.34,2
689,13.24,2
690,13.5,2
691,13.53,2
692,13.7,2
693,14.61,2
694,14.19,2
695,13.77,2
696,14.81,2
697,14.56,2
698,13.92,2
699,13.35,2
700,12.93,2
701,12.8,2
702,13.86,2
703,14.62,2
704,14.84,2
705,13.83,2
706,12.81,2
707,12.8,2
708,12.22,2
709,12.96,2
710,12.45,2
711,12.3,2
712,13.05,2
713,13.37,2
714,13.32,2
715,12.65,2
716,13.05,2
717,13.36,2
718,14.34,2
719,14.93,2
720,15.33,2
721,14.64,2
722,15.58,2
723,15.68,2
724,14.56,2
725,14.59,2
726,14.29,2
727,13.77,2
728,13.8,2
729,13.72,2
730,13.73,2
731,13.6,2
732,13.77,2
733,14.07,2
734,14.66,2
735,14.56,2
736,15.5,2
737,14.97,2
738,14.44,2
739,14.2,2
740,13.42,2
741,13.58,2
742,13.69,2
743,13.29,2
744,13.27,2
745,13.45,2
746,13.41,2
747,13.91,2
748,14.54,2
749,14.52,2
750,14.75,2
751,14.31,2
752,14.77,2
753,14.62,2
754,14.18,2
755,14.26,2
756,14.6,2
757,14.6,2
758,14.53,2
759,14.38,2
760,15.09,2
761,14.5,2
762,14.77,2
763,14.39,2
764,14.18,2
765,13.88,2
766,14.05,2
767,14.18,2
768,14.39,2
769,14.94,2
770,15.52,2
771,15.52,2
772,15.85,2
773,15.49,2
774,15.95,2
775,15.97,2
776,16.46,2
777,14.74,2
778,14.67,2
779,13.52,2
780,12.98,2
781,13.37,2
782,12.72,2
783,13.25,2
784,12.94,2
785,12.58,2
786,12.08,2
787,11.57,2
788,11.19,2
789,11.44,2
790,11.59,2
791,11.7,2
792,12.63,2
793,13.05,2
794,13.41,2
795,13.28,2
796,13.18,2
797,13.17,2
798,13.81,2
799,14.82,2
800,15.0,2
801,14.78,2
802,14.05,2
803,13.87,2
804,13.38,2
805,13.92,2
806,14.51,2
807,13.8,2
808,13.51,2
809,13.71,2
810,13.88,2
811,14.19,2
812,14.78,2
813,15.29,2
814,15.01,2
815,14.79,2
816,14.62,2
817,14.02,2
818,13.77,2
819,13.8,2
820,14.05,2
821,14.15,2
822,13.66,2
823,13.82,2
824,13.51,2
825,14.01,2
826,14.27,2
827,14.65,2
828,14.73,2
829,14.61,2
830,15.61,2
831,15.73,2
832,16.32,2
833,16.31,2
834,16.21,2
835,15.57,2
836,15.11,2
837,14.86,2
838,15.4,2
839,14.83,2
840,14.93,2
841,15.0,2
842,15.1,2
843,14.45,2
844,14.38,2
845,14.36,2
846,14.44,2
847,13.57,2
848,13.92,2
849,14.29,2
850,14.8,2
851,14.96,2
852,14.5,2
853,14.59,2
854,14.32,2
855,14.62,2
856,13.9,2
857,14.6,2
858,14.34,2
859,13.81,2
860,13.62,2
861,13.47,2
862,13.8,2
863,13.7,2
864,13.34,2
865,13.12,2
866,13.01,2
867,12.97,2
868,13.31,2
869,13.39,2
870,13.45,2
871,13.55,2
872,12.59,2
873,12.6,2
874,13.53,2
875,13.34,2
876,13.38,2
877,13.49,2
878,13.49,2
879,13.74,2
880,13.7,2
881,13.35,2
882,12.8,2
883,13.46,2
884,13.86,2
885,13.07,2
886,13.41,2
887,13.38,2
888,14.25,2
889,14.85,2
890,15.17,2
891,15.54,2
892,15.02,2
893,14.8,2
894,14.64,2
895,15.59,2
896,14.51,2
897,13.86,2
898,13.34,2
899,13.35,2
900,13.0,2
901,13.7,2
902,14.19,2
903,13.4,2
904,13.17,2
905,12.73,2
906,12.56,2
907,13.39,2
908,13.65,2
909,13.23,2
910,13.36,2
911,13.33,2
912,13.14,2
913,13.59,2
914,13.17,2
915,13.6,2
916,12.74,2
917,12.75,2
918,12.84,2
919,13.28,2
920,13.38,2
921,13.89,2
922,13.52,2
923,14.16,2
924,14.77,2
925,15.69,2
926,15.88,2
927,16.35,2
928,16.8,2
929,16.61,2
930,16.28,2
931,16.41,2
932,16.29,2
933,17.27,2
934,16.56,2
935,16.84,2
936,16.24,2
937,15.76,2
938,15.52,2
939,15.37,2
940,14.83,2
941,15.02,2
942,15.18,2
943,15.25,2
944,14.6,2
945,14.19,2
946,14.57,2
947,14.11,2
948,13.62,2
949,13.98,2
950,13.52,2
951,12.51,2
952,11.83,2
953,12.67,2
954,12.34,2
955,13.01,2
956,13.24,2
957,12.67,2
958,12.9,2
959,12.69,2
960,13.36,2
961,14.07,2
962,14.17,2
963,13.46,2
964,14.18,2
965,13.9,2
966,14.2,2
967,13.34,2
968,13.08,2
969,12.98,2
970,12.78,2
971,12.99,2
972,12.72,2
973,12.37,2
974,12.49,2
975,12.42,2
976,12.61,2
977,12.19,2
978,11.86,2
979,11.92,2
980,11.64,2
981,12.12,2
982,12.66,2
983,12.71,2
984,12.42,2
985,12.41,2
986,13.12,2
987,13.59,2
988,13.98,2
989,13.3,2
990,13.33,2
991,13.74,2
992,13.67,2
993,14.41,2
994,13.56,2
995,13.0,2
996,12.86,2
997,13.15,2
998,13.68,2
999,14.58,2
